VASP POSCAR                             
   1.0000000000000000     
    10.0000000000000000    0.0000000000000000    0.0000000000000000
     0.0000000000000000   10.0000000000000000    0.0000000000000000
     0.0000000000000000    0.0000000000000000   10.0000000000000000
   C    O    H 
     1     1     1
Selective dynamics
Direct
  0.5000000000000000  0.5000000000000000  0.4428020000000004   F   F   F
  0.5000000000000000  0.5599777305580425  0.5510172984729554   T   T   T
  0.5000000000000000  0.5729965131514092  0.3538632353977369   T   T   T

  0.00000000E+00  0.00000000E+00  0.00000000E+00
  0.00000000E+00  0.00000000E+00  0.00000000E+00
  0.00000000E+00  0.00000000E+00  0.00000000E+00
